     Program PWSCF v.6.1 starts on 16Oct2017 at 20:56:54

     Current dimensions of program PWSCF are:
     Max number of different atomic species (ntypx) = 10
     Max number of k-points (npk) =  40000
     Max angular momentum in pseudopotentials (lmaxx) =  3

     IMPORTANT: XC functional enforced from input :
     Exchange-correlation      = BEEF ( 1  4 29 14 2 0)
     Any further DFT definition will be discarded
     Please, verify this is what you really want

     bravais-lattice index     =            0
     lattice parameter (alat)  =       1.8897  a.u.
     unit-cell volume          =     263.3547 (a.u.)^3
     number of atoms/cell      =            3
     number of atomic types    =            2
     number of electrons       =         7.00
     number of Kohn-Sham states=           15
     kinetic-energy cutoff     =      36.7493  Ry
     charge density cutoff     =     367.4932  Ry
     convergence threshold     =      3.7E-05
     mixing beta               =       0.1000
     number of iterations used =           10  plain     mixing
     Exchange-correlation      = BEEF ( 1  4 29 14 2 0)
     nstep                     =           50

     celldm(1)=   1.889726  celldm(2)=   0.000000  celldm(3)=   0.000000
     celldm(4)=   0.000000  celldm(5)=   0.000000  celldm(6)=   0.000000

     crystal axes: (cart. coord. in units of alat)
               a(1) = (   3.391940   0.000000   0.000000 )
               a(2) = (   0.000000   3.391940   0.000000 )
               a(3) = (   0.000000   0.000000   3.391940 )

     reciprocal axes: (cart. coord. in units 2 pi/alat)
               b(1) = (  0.294817 -0.000000  0.000000 )
               b(2) = (  0.000000  0.294817  0.000000 )
               b(3) = (  0.000000  0.000000  0.294817 )

     PseudoPot. # 1 for Li read from file:
     /nfs/slac/g/suncatfs/sw/external/esp-psp/gbrv1.5pbe/Li.UPF
     MD5 check sum: e912e257baa3777c20ea3d68f190483c
     Pseudo is Ultrasoft, Zval =  3.0
     Generated by new atomic code, or converted to UPF format
     Using radial grid of  751 points,  5 beta functions with:
                l(1) =   0
                l(2) =   0
                l(3) =   0
                l(4) =   1
                l(5) =   1
     Q(r) pseudized with 10 coefficients,  rinner =    1.150   1.150   1.150

     PseudoPot. # 2 for H  read from file:
     /nfs/slac/g/suncatfs/sw/external/esp-psp/gbrv1.5pbe/H.UPF
     MD5 check sum: 761ae9a214b05c3daf00ab9f6b793d6f
     Pseudo is Ultrasoft, Zval =  1.0
     Generated by new atomic code, or converted to UPF format
     Using radial grid of  615 points,  2 beta functions with:
                l(1) =   0
                l(2) =   0
     Q(r) pseudized with  8 coefficients,  rinner =    0.700

     vdW kernel table read from file vdW_kernel_table
     MD5 check sum: 095c7af220d748ca6e76c0b4c6cfb241

     atomic species   valence    mass     pseudopotential
        Li1            3.00     6.94000     Li( 1.00)
        H1             1.00     1.00800     H ( 1.00)

      2 Sym. Ops. (no inversion) found

   Cartesian axes

     site n.     atom                  positions (alat units)
         1           Li1 tau(   1) = (   0.0000000   0.0000000   0.0000000  )
         2           Li1 tau(   2) = (   1.6959699   1.6959699   1.6959699  )
         3           H1  tau(   3) = (   2.5440000   0.0000000   1.6960000  )

     number of k points=    30  Fermi-Dirac smearing, width (Ry)=  0.0073
                       cart. coord. in units 2pi/alat
        k(    1) = (   0.0000000   0.0000000   0.0000000), wk =   0.0312500
        k(    2) = (   0.0000000   0.0000000   0.0737041), wk =   0.0625000
        k(    3) = (   0.0000000   0.0000000  -0.1474083), wk =   0.0312500
        k(    4) = (   0.0000000   0.0737041   0.0737041), wk =   0.1250000
        k(    5) = (   0.0000000   0.0737041  -0.1474083), wk =   0.0625000
        k(    6) = (   0.0000000  -0.1474083  -0.1474083), wk =   0.0312500
        k(    7) = (   0.0737041   0.0737041   0.0737041), wk =   0.1250000
        k(    8) = (   0.0737041   0.0737041  -0.1474083), wk =   0.1250000
        k(    9) = (   0.0737041  -0.1474083  -0.1474083), wk =   0.0625000
        k(   10) = (  -0.1474083  -0.1474083  -0.1474083), wk =   0.0312500
        k(   11) = (   0.0737041  -0.0000000   0.0000000), wk =   0.0625000
        k(   12) = (   0.0000000   0.0737041   0.0000000), wk =   0.0625000
        k(   13) = (  -0.1474083   0.0000000   0.0000000), wk =   0.0312500
        k(   14) = (   0.0000000  -0.1474083   0.0000000), wk =   0.0312500
        k(   15) = (   0.0737041  -0.0000000  -0.0737041), wk =   0.0625000
        k(   16) = (  -0.0737041   0.0000000  -0.0737041), wk =   0.0625000
        k(   17) = (   0.0737041  -0.0737041   0.0000000), wk =   0.1250000
        k(   18) = (   0.0737041  -0.0000000   0.1474083), wk =   0.0625000
        k(   19) = (  -0.1474083  -0.0737041   0.0000000), wk =   0.0625000
        k(   20) = (   0.0000000  -0.1474083   0.0737041), wk =   0.0625000
        k(   21) = (   0.0737041  -0.1474083   0.0000000), wk =   0.0625000
        k(   22) = (  -0.1474083   0.0000000   0.0737041), wk =   0.0625000
        k(   23) = (  -0.1474083   0.0000000   0.1474083), wk =   0.0312500
        k(   24) = (  -0.1474083   0.1474083   0.0000000), wk =   0.0312500
        k(   25) = (   0.0737041  -0.0737041  -0.0737041), wk =   0.1250000
        k(   26) = (  -0.1474083  -0.0737041   0.0737041), wk =   0.1250000
        k(   27) = (  -0.0737041  -0.1474083   0.0737041), wk =   0.0625000
        k(   28) = (  -0.0737041   0.1474083  -0.0737041), wk =   0.0625000
        k(   29) = (  -0.1474083   0.0737041   0.1474083), wk =   0.0625000
        k(   30) = (  -0.1474083   0.1474083   0.0737041), wk =   0.0625000

     Initial potential from superposition of free atoms

     starting charge    6.09851, renormalised to    7.00000

     %%%%%%%%%%%%%%%%%%%%%%%%%%%%%%%%%%%%%%%%%%%%%%%%%%%%%%%%%%%%%%%%%%%%%%%%
     %                                                                      %
     % You are using vdW-DF, which was implemented by the Thonhauser group. %
     % Please cite the following two papers that made this development      %
     % possible and the two reviews that describe the various versions:     %
     %                                                                      %
     %   T. Thonhauser et al., PRL 115, 136402 (2015).                      %
     %   T. Thonhauser et al., PRB 76, 125112 (2007).                       %
     %   K. Berland et al., Rep. Prog. Phys. 78, 066501 (2015).             %
     %   D.C. Langreth et al., J. Phys.: Condens. Matter 21, 084203 (2009). %
     %                                                                      %
     %                                                                      %
     % If you are calculating the stress with vdW-DF, please also cite:     %
     %                                                                      %
     %   R. Sabatini et al., J. Phys.: Condens. Matter 24, 424209 (2012).   %
     %                                                                      %
     %%%%%%%%%%%%%%%%%%%%%%%%%%%%%%%%%%%%%%%%%%%%%%%%%%%%%%%%%%%%%%%%%%%%%%%%

     Starting wfc are   11 randomized atomic wfcs +    4 random wfc

     Self-consistent Calculation

     iteration #  1     ecut=    36.75 Ry     beta=0.10
     Davidson diagonalization with overlap
     ethr =  1.00E-02,  avg # of iterations =  5.7

     total energy              =     -30.72533337 Ry
     Harris-Foulkes estimate   =     -30.77391116 Ry
     estimated scf accuracy    <       0.31678292 Ry

[...]

     End of self-consistent calculation

          k = 0.0000 0.0000 0.0000 (  1021 PWs)   bands (ev):

   -46.1173 -46.0810  -4.5493   3.2984   6.5686   6.5686   7.8186   9.0138
    14.9383  15.8234  15.8235  16.0614  17.0993  20.5076  20.5080

[...]

          k =-0.1474-0.1474-0.1474 (   968 PWs)   bands (ev):

[...]

     the Fermi energy is     1.3816 ev

!    total energy              =     -30.57676122 Ry
     Harris-Foulkes estimate   =     -30.57676186 Ry
     estimated scf accuracy    <       0.00000464 Ry

     The total energy is the sum of the following terms:

     one-electron contribution =     -18.69243198 Ry
     hartree contribution      =       7.41661350 Ry
     xc contribution           =      -7.97266200 Ry
     ewald contribution        =     -11.32482839 Ry
     smearing contrib. (-TS)   =      -0.00345235 Ry

     convergence has been achieved in   8 iterations

     Forces acting on atoms (cartesian axes, Ry/au):

     atom    1 type  1   force =    -0.00790895    0.00000000   -0.00000060
     atom    2 type  1   force =     0.00790211   -0.00000000    0.00000325
     atom    3 type  2   force =     0.00000684   -0.00000000   -0.00000265

     Total force =     0.011180     Total SCF correction =     0.000971

     Computing stress (Cartesian axis) and pressure

          total   stress  (Ry/bohr**3)                   (kbar)     P=   -3.60
  -0.00010228   0.00000000   0.00000002        -15.05      0.00      0.00
   0.00000000   0.00001443  -0.00000000          0.00      2.12     -0.00
   0.00000002  -0.00000000   0.00001438          0.00     -0.00      2.12

     BFGS Geometry Optimization

     number of scf cycles    =   1
     number of bfgs steps    =   0

     enthalpy new            =     -30.5767612198 Ry

     new trust radius        =       0.0082993366 bohr
     new conv_thr            =       0.0000367493 Ry

     new unit-cell volume =    262.87050 a.u.^3 (    38.95339 Ang^3 )
     density =      0.63466 g/cm^3

CELL_PARAMETERS (alat=  1.88972612)
   3.383266432   0.000000000   0.000001664
   0.000000000   3.393163332   0.000000000
   0.000001664  -0.000000000   3.393159550

ATOMIC_POSITIONS (crystal)
Li1     -0.001233877   0.000000000  -0.000000093
Li1      0.501232810   0.500000000   0.500000506
H1       0.750014363  -0.000000000   0.500008451

     Writing output data file calc.save
     NEW-OLD atomic charge density approx. for the potential
     extrapolated charge    6.98877, renormalised to    7.00000

[...]

     Threshold (ethr) on eigenvalues was too large:
     Diagonalizing with lowered threshold

     Davidson diagonalization with overlap
     ethr =  3.58E-08,  avg # of iterations =  1.0

[...]

     Total force =     0.011697     Total SCF correction =     0.001221
     SCF correction compared to forces is large: reduce conv_thr to get better values

[...]

     enthalpy old            =     -30.5767612198 Ry
     enthalpy new            =     -30.5769696212 Ry

     CASE: enthalpy_new < enthalpy_old

[...]

     WARNING: bfgs curvature condition failed, Theta= 0.222
     new trust radius        =       0.0136832018 bohr
     new conv_thr            =       0.0000003675 Ry

[...]

     WARNING: bfgs curvature condition failed, Theta= 0.697
     uphill step: resetting bfgs history

[...]

     iteration #  4     ecut=    36.75 Ry     beta=0.10
     Davidson diagonalization with overlap
  python dir          : /u/if/ksb/ase-qe/lib/python2.7/site-packages/espresso
  espresso dir        : /nfs/slac/g/suncatfs/ksb/q-e/bin
  pseudo dir          : /nfs/slac/g/suncatfs/sw/external/esp-psp/gbrv1.5pbe
  ase-espresso py git : 5c31baa-git

     Program PWSCF v.6.1 starts on 19Oct2017 at 12: 5:41

[...]

     WARNING: info= 14 for Hessian

[...]

     CASE: enthalpy_new > enthalpy_old

[...]

     new trust radius        =       0.0000202342 bohr

     trust_radius < trust_radius_min

     resetting bfgs history

     new conv_thr            =       0.0000003675 Ry

[...]

     iteration #  1     ecut=    36.75 Ry     beta=0.10
     Davidson diagonalization with overlap
     ethr =  1.00E-06,  avg # of iterations =  3.1
  python dir          : /u/if/ksb/ase-qe/lib/python2.7/site-packages/espresso
  espresso dir        : /nfs/slac/g/suncatfs/ksb/q-e/bin
  pseudo dir          : /nfs/slac/g/suncatfs/sw/external/esp-psp/gbrv1.5pbe
  ase-espresso py git : 5c31baa-git

[...]

     WARNING: info= 14 for Hessian

[...]

     bfgs converged in  45 scf cycles and  40 bfgs steps
     (criteria: energy <  1.0E+00 Ry, force <  1.9E-03Ry/Bohr, cell <  5.0E-01kbar)

     End of BFGS Geometry Optimization

     Final enthalpy =     -30.5806010484 Ry
Begin final coordinates
     new unit-cell volume =    252.85344 a.u.^3 (    37.46901 Ang^3 )
     density =      0.65980 g/cm^3

[...]

ATOMIC_POSITIONS (crystal)
Li1     -0.015310260   0.000000000  -0.000001318
Li1      0.515132459   0.500000000   0.500002399
H1       0.750191098  -0.000000000   0.500007783
End final coordinates

     A final scf calculation at the relaxed structure.
     The G-vectors are recalculated for the final unit cell
     Results may differ from those at the preceding step.

     bravais-lattice index     =            0
     lattice parameter (alat)  =       1.8897  a.u.
     unit-cell volume          =     252.8534 (a.u.)^3
     number of atoms/cell      =            3
     number of atomic types    =            2
     number of electrons       =         7.00
     number of Kohn-Sham states=           15
     kinetic-energy cutoff     =      36.7493  Ry
     charge density cutoff     =     367.4932  Ry
     convergence threshold     =      3.7E-07
     mixing beta               =       0.1000
     number of iterations used =           10  plain     mixing
     Exchange-correlation      = BEEF ( 1  4 29 14 2 0)

[...]

     starting charge    6.09851, renormalised to    7.00000
     Starting wfc are   11 randomized atomic wfcs +    4 random wfc

     Writing output data file calc.save

[...]

     General routines

     Parallel routines

   This run was terminated on:  21:27:41  21Oct2017

   JOB DONE.
  python dir          : /u/if/ksb/ase-qe/lib/python2.7/site-packages/espresso
  espresso dir        : /nfs/slac/g/suncatfs/ksb/q-e/bin
  pseudo dir          : /nfs/slac/g/suncatfs/sw/external/esp-psp/gbrv1.5pbe
  ase-espresso py git : 5c31baa-git

     Program PWSCF v.6.1 starts on 21Oct2017 at 21:27:46

     Current dimensions of program PWSCF are:
     Max number of different atomic species (ntypx) = 10
     Max number of k-points (npk) =  40000
     Max angular momentum in pseudopotentials (lmaxx) =  3

     IMPORTANT: XC functional enforced from input :
     Exchange-correlation      = BEEF ( 1  4 29 14 2 0)
     Any further DFT definition will be discarded
     Please, verify this is what you really want

     bravais-lattice index     =            0
     lattice parameter (alat)  =       1.8897  a.u.
     unit-cell volume          =     252.8534 (a.u.)^3
     number of atoms/cell      =            3
     number of atomic types    =            2
     number of electrons       =         7.00
     number of Kohn-Sham states=           15
     kinetic-energy cutoff     =      36.7493  Ry
     charge density cutoff     =     367.4932  Ry
     convergence threshold     =      3.7E-05
     mixing beta               =       0.1000
     number of iterations used =           10  plain     mixing
     Exchange-correlation      = BEEF ( 1  4 29 14 2 0)
     nstep                     =           50

     celldm(1)=   1.889726  celldm(2)=   0.000000  celldm(3)=   0.000000
     celldm(4)=   0.000000  celldm(5)=   0.000000  celldm(6)=   0.000000

     crystal axes: (cart. coord. in units of alat)
               a(1) = (   3.009306   0.000000   0.000003 )
               a(2) = (   0.000000   3.527519   0.000000 )
               a(3) = (   0.000002   0.000000   3.529690 )

     reciprocal axes: (cart. coord. in units 2 pi/alat)
               b(1) = (  0.332303  0.000000 -0.000000 )
               b(2) = (  0.000000  0.283485  0.000000 )
               b(3) = ( -0.000000  0.000000  0.283311 )

     PseudoPot. # 1 for Li read from file:
     /nfs/slac/g/suncatfs/sw/external/esp-psp/gbrv1.5pbe/Li.UPF
     MD5 check sum: e912e257baa3777c20ea3d68f190483c
     Pseudo is Ultrasoft, Zval =  3.0
     Generated by new atomic code, or converted to UPF format
     Using radial grid of  751 points,  5 beta functions with:
                l(1) =   0
                l(2) =   0
                l(3) =   0
                l(4) =   1
                l(5) =   1
     Q(r) pseudized with 10 coefficients,  rinner =    1.150   1.150   1.150

     PseudoPot. # 2 for H  read from file:
     /nfs/slac/g/suncatfs/sw/external/esp-psp/gbrv1.5pbe/H.UPF
     MD5 check sum: 761ae9a214b05c3daf00ab9f6b793d6f
     Pseudo is Ultrasoft, Zval =  1.0
     Generated by new atomic code, or converted to UPF format
     Using radial grid of  615 points,  2 beta functions with:
                l(1) =   0
                l(2) =   0
     Q(r) pseudized with  8 coefficients,  rinner =    0.700

     vdW kernel table read from file vdW_kernel_table
     MD5 check sum: 095c7af220d748ca6e76c0b4c6cfb241

     atomic species   valence    mass     pseudopotential
        Li1            3.00     6.94000     Li( 1.00)
        H1             1.00     1.00800     H ( 1.00)

      2 Sym. Ops. (no inversion) found

   Cartesian axes

     site n.     atom                  positions (alat units)
         1           Li1 tau(   1) = (   2.9632340   0.0000000   3.5296881  )
         2           Li1 tau(   2) = (   1.5501918   1.7637595   1.7648549  )
         3           H1  tau(   3) = (   2.2575551   0.0000000   1.7648745  )

     number of k points=    30  Fermi-Dirac smearing, width (Ry)=  0.0073
                       cart. coord. in units 2pi/alat
        k(    1) = (   0.0000000   0.0000000   0.0000000), wk =   0.0312500
        k(    2) = (  -0.0000001   0.0000000   0.0708277), wk =   0.0625000
        k(    3) = (   0.0000001   0.0000000  -0.1416555), wk =   0.0312500
        k(    4) = (   0.0000000   0.0708713   0.0000000), wk =   0.0625000
        k(    5) = (  -0.0000001   0.0708713   0.0708277), wk =   0.1250000
        k(    6) = (   0.0000001   0.0708713  -0.1416555), wk =   0.0625000
        k(    7) = (   0.0000000  -0.1417427   0.0000000), wk =   0.0312500
        k(    8) = (  -0.0000001  -0.1417427   0.0708277), wk =   0.0625000
        k(    9) = (   0.0000001  -0.1417427  -0.1416555), wk =   0.0312500
        k(   10) = (   0.0830756   0.0000000  -0.0000000), wk =   0.0625000
        k(   11) = (   0.0830756   0.0000000   0.0708277), wk =   0.0625000
        k(   12) = (   0.0830758   0.0000000  -0.1416555), wk =   0.0625000
        k(   13) = (   0.0830757   0.0000000  -0.0708278), wk =   0.0625000
        k(   14) = (   0.0830756   0.0708713  -0.0000000), wk =   0.1250000
        k(   15) = (   0.0830756   0.0708713   0.0708277), wk =   0.1250000
        k(   16) = (   0.0830758   0.0708713  -0.1416555), wk =   0.1250000
        k(   17) = (   0.0830757   0.0708713  -0.0708278), wk =   0.1250000
        k(   18) = (   0.0830756  -0.1417427  -0.0000000), wk =   0.0625000
        k(   19) = (   0.0830756  -0.1417427   0.0708277), wk =   0.0625000
        k(   20) = (   0.0830758  -0.1417427  -0.1416555), wk =   0.0625000
        k(   21) = (   0.0830757  -0.1417427  -0.0708278), wk =   0.0625000
        k(   22) = (  -0.1661513   0.0000000   0.0000001), wk =   0.0312500
        k(   23) = (  -0.1661513   0.0000000   0.0708278), wk =   0.0625000
        k(   24) = (  -0.1661512   0.0000000  -0.1416554), wk =   0.0312500
        k(   25) = (  -0.1661513   0.0708713   0.0000001), wk =   0.0625000
        k(   26) = (  -0.1661513   0.0708713   0.0708278), wk =   0.1250000
        k(   27) = (  -0.1661512   0.0708713  -0.1416554), wk =   0.0625000
        k(   28) = (  -0.1661513  -0.1417427   0.0000001), wk =   0.0312500
        k(   29) = (  -0.1661513  -0.1417427   0.0708278), wk =   0.0625000
        k(   30) = (  -0.1661512  -0.1417427  -0.1416554), wk =   0.0312500

     Initial potential from superposition of free atoms

     starting charge    6.09851, renormalised to    7.00000

     %%%%%%%%%%%%%%%%%%%%%%%%%%%%%%%%%%%%%%%%%%%%%%%%%%%%%%%%%%%%%%%%%%%%%%%%
     %                                                                      %
     % You are using vdW-DF, which was implemented by the Thonhauser group. %
     % Please cite the following two papers that made this development      %
     % possible and the two reviews that describe the various versions:     %
     %                                                                      %
     %   T. Thonhauser et al., PRL 115, 136402 (2015).                      %
     %   T. Thonhauser et al., PRB 76, 125112 (2007).                       %
     %   K. Berland et al., Rep. Prog. Phys. 78, 066501 (2015).             %
     %   D.C. Langreth et al., J. Phys.: Condens. Matter 21, 084203 (2009). %
     %                                                                      %
     %                                                                      %
     % If you are calculating the stress with vdW-DF, please also cite:     %
     %                                                                      %
     %   R. Sabatini et al., J. Phys.: Condens. Matter 24, 424209 (2012).   %
     %                                                                      %
     %%%%%%%%%%%%%%%%%%%%%%%%%%%%%%%%%%%%%%%%%%%%%%%%%%%%%%%%%%%%%%%%%%%%%%%%

     Starting wfc are   11 randomized atomic wfcs +    4 random wfc

[...]

     BFGS Geometry Optimization

[...]

     enthalpy new            =     -30.5806801568 Ry

[...]

     WARNING: bfgs curvature condition failed, Theta= 0.139
     new trust radius        =       0.0040912735 bohr
     new conv_thr            =       0.0000003675 Ry

[...]

     WARNING: bfgs curvature condition failed, Theta= 0.731
     uphill step: resetting bfgs history

[...]

     CASE: enthalpy_new < enthalpy_old

[...]

     Total force =     0.000224     Total SCF correction =     0.000111
     SCF correction compared to forces is large: reduce conv_thr to get better values

[...]

     new trust radius        =       0.0001366658 bohr
     new conv_thr            =       0.0000003675 Ry

[...]

     Self-consistent Calculation

[...]

     Threshold (ethr) on eigenvalues was too large:
     Diagonalizing with lowered threshold

     Davidson diagonalization with overlap
     ethr =  5.44E-09,  avg # of iterations =  1.0

     total energy              =     -30.58071396 Ry
     Harris-Foulkes estimate   =     -30.58255854 Ry
     estimated scf accuracy    <       0.00000038 Ry

     iteration #  2     ecut=    36.75 Ry     beta=0.10
     Davidson diagonalization with overlap
     ethr =  5.44E-09,  avg # of iterations =  2.1

     End of self-consistent calculation

[...]

          k = 0.0833-0.1421-0.0710 (   952 PWs)   bands (ev):

[...]

          k =-0.1665-0.1421-0.1420 (   960 PWs)   bands (ev):

   -45.8756 -45.8736  -1.7285   4.6020   4.6026   5.1171   5.1190   5.3146
    10.2997  10.3000  19.6527  23.8379  24.1913  24.6763  26.6061

     the Fermi energy is     1.5192 ev

!    total energy              =     -30.58071404 Ry
     Harris-Foulkes estimate   =     -30.58071415 Ry
     estimated scf accuracy    <       0.00000014 Ry

     The total energy is the sum of the following terms:

     one-electron contribution =     -18.37353024 Ry
     hartree contribution      =       7.31333740 Ry
     xc contribution           =      -7.99025256 Ry
     ewald contribution        =     -11.52815867 Ry
     smearing contrib. (-TS)   =      -0.00210997 Ry

     convergence has been achieved in   2 iterations

     Forces acting on atoms (cartesian axes, Ry/au):

     atom    1 type  1   force =     0.00007078    0.00000000    0.00000122
     atom    2 type  1   force =     0.00010968    0.00000000    0.00000025
     atom    3 type  2   force =    -0.00018046    0.00000000   -0.00000147

     Total force =     0.000223     Total SCF correction =     0.000014

     Computing stress (Cartesian axis) and pressure

          total   stress  (Ry/bohr**3)                   (kbar)     P=   -0.68
  -0.00000371   0.00000000   0.00000001         -0.55      0.00      0.00
   0.00000000  -0.00000468   0.00000000          0.00     -0.69      0.00
   0.00000001   0.00000000  -0.00000547          0.00      0.00     -0.80

     number of scf cycles    =  50
     number of bfgs steps    =   6

     enthalpy old            =     -30.5807142788 Ry
     enthalpy new            =     -30.5807140402 Ry

     CASE: enthalpy_new > enthalpy_old

     new trust radius        =       0.0000339362 bohr

     trust_radius < trust_radius_min

     resetting bfgs history

     new conv_thr            =       0.0000003675 Ry

     new unit-cell volume =    251.23650 a.u.^3 (    37.22941 Ang^3 )
     density =      0.66405 g/cm^3

CELL_PARAMETERS (alat=  1.88972612)
   3.003486506   0.000000000   0.000007040
   0.000000000   3.519658859   0.000000000
   0.000006878   0.000000000   3.521761006

ATOMIC_POSITIONS (crystal)
Li1      0.984744991   0.000000000   1.000000341
Li1      0.515288539   0.500000000   0.500002939
H1       0.749979766   0.000000000   0.500005584

     Writing output data file calc.save
     NEW-OLD atomic charge density approx. for the potential
     extrapolated charge    7.00287, renormalised to    7.00000

     Writing output data file calc.save

     General routines

     Parallel routines

   This run was terminated on:   9:30:42  22Oct2017

   JOB DONE.
Primary job  terminated normally, but 1 process returned
a non-zero exit code.. Per user-direction, the job has been aborted.
mpirun detected that one or more processes exited with non-zero status, thus causing
the job to be terminated. The first process to do so was:

  Process name: [[15048,1],2]
  Exit code:    3